c "787201.clq"
p edge 202 2976
e 1 17
e 1 18
e 1 19
e 1 21
e 1 22
e 1 23
e 1 24
e 1 25
e 1 26
e 1 27
e 1 29
e 1 30
e 1 31
e 1 32
e 1 39
e 1 40
e 1 41
e 1 45
e 1 46
e 1 48
e 1 50
e 1 52
e 1 54
e 1 56
e 1 65
e 1 66
e 1 67
e 1 75
e 1 77
e 1 78
e 1 82
e 1 89
e 1 97
e 1 98
e 1 99
e 1 101
e 1 114
e 1 126
e 1 132
e 1 140
e 1 143
e 1 152
e 1 155
e 1 163
e 1 166
e 1 167
e 1 176
e 1 192
e 1 201
e 2 17
e 2 18
e 2 19
e 2 20
e 2 21
e 2 22
e 2 25
e 2 26
e 2 27
e 2 28
e 2 29
e 2 30
e 2 31
e 2 34
e 2 36
e 2 37
e 2 38
e 2 39
e 2 42
e 2 43
e 2 44
e 2 45
e 2 46
e 2 47
e 2 52
e 2 56
e 2 59
e 2 60
e 2 63
e 2 69
e 2 74
e 2 79
e 2 89
e 2 92
e 2 94
e 2 100
e 2 104
e 2 106
e 2 108
e 2 122
e 2 125
e 2 137
e 2 141
e 2 144
e 2 147
e 2 149
e 2 151
e 2 155
e 2 170
e 2 183
e 2 186
e 2 188
e 2 193
e 2 201
e 3 17
e 3 18
e 3 20
e 3 22
e 3 23
e 3 32
e 3 35
e 3 42
e 3 45
e 3 50
e 3 64
e 3 69
e 3 75
e 3 107
e 3 127
e 3 128
e 3 135
e 3 151
e 3 154
e 3 161
e 3 163
e 4 17
e 4 18
e 4 19
e 4 20
e 4 21
e 4 22
e 4 24
e 4 25
e 4 31
e 4 33
e 4 38
e 4 40
e 4 42
e 4 43
e 4 48
e 4 54
e 4 55
e 4 57
e 4 59
e 4 65
e 4 67
e 4 71
e 4 72
e 4 74
e 4 78
e 4 82
e 4 87
e 4 91
e 4 97
e 4 114
e 4 116
e 4 119
e 4 121
e 4 138
e 4 159
e 4 160
e 4 172
e 4 180
e 4 194
e 5 17
e 5 18
e 5 19
e 5 20
e 5 21
e 5 22
e 5 23
e 5 26
e 5 28
e 5 29
e 5 30
e 5 31
e 5 36
e 5 37
e 5 38
e 5 40
e 5 41
e 5 43
e 5 45
e 5 46
e 5 47
e 5 49
e 5 52
e 5 53
e 5 60
e 5 63
e 5 67
e 5 72
e 5 76
e 5 81
e 5 84
e 5 93
e 5 94
e 5 101
e 5 119
e 5 128
e 5 146
e 5 157
e 5 170
e 5 173
e 5 186
e 5 202
e 6 17
e 6 18
e 6 20
e 6 23
e 6 24
e 6 25
e 6 27
e 6 28
e 6 29
e 6 31
e 6 33
e 6 35
e 6 39
e 6 41
e 6 45
e 6 47
e 6 49
e 6 50
e 6 51
e 6 53
e 6 57
e 6 61
e 6 62
e 6 67
e 6 68
e 6 82
e 6 83
e 6 85
e 6 90
e 6 95
e 6 105
e 6 114
e 6 124
e 6 143
e 6 146
e 6 147
e 6 166
e 6 174
e 6 175
e 6 188
e 6 194
e 7 17
e 7 19
e 7 20
e 7 22
e 7 23
e 7 24
e 7 28
e 7 30
e 7 33
e 7 34
e 7 36
e 7 42
e 7 47
e 7 50
e 7 51
e 7 61
e 7 63
e 7 81
e 7 95
e 7 101
e 7 104
e 7 120
e 7 151
e 7 161
e 7 189
e 8 17
e 8 18
e 8 19
e 8 20
e 8 21
e 8 22
e 8 23
e 8 24
e 8 25
e 8 28
e 8 30
e 8 33
e 8 34
e 8 51
e 8 53
e 8 55
e 8 58
e 8 62
e 8 65
e 8 70
e 8 71
e 8 73
e 8 74
e 8 85
e 8 92
e 8 107
e 8 115
e 8 121
e 8 122
e 8 126
e 8 128
e 8 129
e 8 135
e 8 144
e 8 161
e 8 164
e 8 172
e 8 178
e 8 184
e 8 201
e 9 17
e 9 18
e 9 19
e 9 20
e 9 21
e 9 26
e 9 28
e 9 29
e 9 32
e 9 33
e 9 34
e 9 35
e 9 36
e 9 37
e 9 39
e 9 43
e 9 46
e 9 48
e 9 49
e 9 52
e 9 53
e 9 62
e 9 72
e 9 78
e 9 83
e 9 100
e 9 101
e 9 102
e 9 105
e 9 107
e 9 110
e 9 117
e 9 123
e 9 125
e 9 134
e 9 149
e 9 158
e 9 159
e 9 166
e 9 167
e 9 170
e 9 176
e 9 197
e 10 17
e 10 18
e 10 19
e 10 21
e 10 22
e 10 23
e 10 26
e 10 27
e 10 29
e 10 32
e 10 36
e 10 38
e 10 62
e 10 75
e 10 86
e 10 119
e 10 125
e 10 143
e 10 144
e 10 149
e 10 153
e 10 174
e 10 176
e 10 178
e 11 17
e 11 18
e 11 19
e 11 20
e 11 21
e 11 22
e 11 23
e 11 24
e 11 25
e 11 26
e 11 29
e 11 32
e 11 33
e 11 36
e 11 37
e 11 39
e 11 41
e 11 49
e 11 51
e 11 56
e 11 61
e 11 62
e 11 66
e 11 69
e 11 71
e 11 76
e 11 77
e 11 81
e 11 86
e 11 87
e 11 104
e 11 114
e 11 116
e 11 123
e 11 125
e 11 145
e 11 149
e 11 163
e 11 164
e 11 171
e 11 173
e 11 175
e 11 187
e 11 192
e 11 201
e 12 17
e 12 18
e 12 19
e 12 20
e 12 22
e 12 24
e 12 25
e 12 27
e 12 30
e 12 31
e 12 32
e 12 33
e 12 40
e 12 41
e 12 43
e 12 45
e 12 47
e 12 53
e 12 71
e 12 73
e 12 75
e 12 77
e 12 79
e 12 87
e 12 88
e 12 91
e 12 92
e 12 99
e 12 101
e 12 109
e 12 113
e 12 129
e 12 135
e 12 136
e 12 141
e 12 149
e 12 151
e 12 154
e 12 158
e 12 167
e 12 190
e 12 202
e 13 17
e 13 18
e 13 19
e 13 20
e 13 21
e 13 23
e 13 24
e 13 26
e 13 27
e 13 30
e 13 31
e 13 40
e 13 43
e 13 44
e 13 45
e 13 46
e 13 48
e 13 50
e 13 51
e 13 55
e 13 77
e 13 79
e 13 80
e 13 102
e 13 103
e 13 116
e 13 124
e 13 130
e 13 131
e 13 138
e 13 141
e 13 144
e 13 148
e 13 162
e 13 189
e 14 17
e 14 18
e 14 19
e 14 21
e 14 22
e 14 23
e 14 24
e 14 26
e 14 28
e 14 29
e 14 42
e 14 47
e 14 52
e 14 57
e 14 65
e 14 67
e 14 74
e 14 83
e 14 109
e 14 118
e 14 132
e 14 139
e 14 142
e 14 172
e 14 177
e 14 181
e 14 187
e 14 195
e 15 17
e 15 18
e 15 19
e 15 20
e 15 21
e 15 33
e 15 35
e 15 49
e 15 69
e 15 95
e 15 102
e 15 118
e 15 131
e 15 149
e 15 160
e 15 167
e 15 172
e 15 173
e 15 197
e 15 200
e 16 17
e 16 18
e 16 19
e 16 20
e 16 21
e 16 22
e 16 24
e 16 25
e 16 28
e 16 30
e 16 34
e 16 37
e 16 39
e 16 40
e 16 42
e 16 43
e 16 46
e 16 54
e 16 60
e 16 61
e 16 64
e 16 71
e 16 80
e 16 86
e 16 93
e 16 98
e 16 131
e 16 140
e 16 156
e 16 172
e 16 177
e 16 179
e 16 183
e 17 18
e 17 19
e 17 20
e 17 21
e 17 22
e 17 23
e 17 24
e 17 25
e 17 26
e 17 27
e 17 29
e 17 31
e 17 32
e 17 33
e 17 34
e 17 35
e 17 36
e 17 37
e 17 38
e 17 40
e 17 41
e 17 43
e 17 45
e 17 46
e 17 47
e 17 49
e 17 55
e 17 56
e 17 58
e 17 59
e 17 63
e 17 65
e 17 66
e 17 68
e 17 72
e 17 73
e 17 76
e 17 78
e 17 80
e 17 82
e 17 88
e 17 89
e 17 91
e 17 92
e 17 104
e 17 105
e 17 106
e 17 110
e 17 114
e 17 117
e 17 119
e 17 120
e 17 123
e 17 130
e 17 133
e 17 137
e 17 142
e 17 144
e 17 148
e 17 155
e 17 157
e 17 159
e 17 163
e 17 170
e 17 175
e 17 176
e 17 191
e 17 198
e 18 19
e 18 20
e 18 21
e 18 22
e 18 23
e 18 24
e 18 25
e 18 26
e 18 27
e 18 28
e 18 29
e 18 30
e 18 32
e 18 33
e 18 34
e 18 35
e 18 36
e 18 37
e 18 38
e 18 39
e 18 40
e 18 41
e 18 42
e 18 49
e 18 55
e 18 57
e 18 59
e 18 61
e 18 63
e 18 64
e 18 66
e 18 68
e 18 71
e 18 72
e 18 75
e 18 87
e 18 89
e 18 93
e 18 94
e 18 96
e 18 97
e 18 99
e 18 100
e 18 102
e 18 106
e 18 107
e 18 111
e 18 117
e 18 120
e 18 123
e 18 140
e 18 161
e 18 163
e 18 164
e 18 166
e 18 168
e 18 176
e 18 181
e 18 191
e 18 194
e 18 196
e 19 20
e 19 21
e 19 22
e 19 23
e 19 24
e 19 25
e 19 27
e 19 28
e 19 29
e 19 30
e 19 31
e 19 34
e 19 35
e 19 36
e 19 37
e 19 38
e 19 39
e 19 40
e 19 41
e 19 44
e 19 46
e 19 52
e 19 54
e 19 56
e 19 58
e 19 60
e 19 62
e 19 63
e 19 64
e 19 67
e 19 69
e 19 73
e 19 78
e 19 87
e 19 89
e 19 96
e 19 103
e 19 106
e 19 117
e 19 118
e 19 119
e 19 120
e 19 125
e 19 126
e 19 129
e 19 135
e 19 137
e 19 140
e 19 142
e 19 146
e 19 148
e 19 153
e 19 161
e 19 165
e 19 177
e 19 183
e 19 187
e 19 196
e 19 199
e 20 21
e 20 22
e 20 23
e 20 24
e 20 25
e 20 26
e 20 27
e 20 30
e 20 32
e 20 33
e 20 35
e 20 37
e 20 44
e 20 47
e 20 48
e 20 53
e 20 54
e 20 56
e 20 57
e 20 58
e 20 64
e 20 65
e 20 69
e 20 71
e 20 77
e 20 79
e 20 84
e 20 101
e 20 123
e 20 127
e 20 129
e 20 130
e 20 135
e 20 139
e 20 162
e 20 163
e 20 164
e 20 165
e 20 166
e 20 168
e 20 173
e 20 179
e 20 202
e 21 23
e 21 24
e 21 25
e 21 26
e 21 27
e 21 28
e 21 29
e 21 33
e 21 34
e 21 35
e 21 36
e 21 37
e 21 39
e 21 40
e 21 41
e 21 42
e 21 45
e 21 49
e 21 53
e 21 56
e 21 58
e 21 59
e 21 61
e 21 62
e 21 64
e 21 65
e 21 70
e 21 74
e 21 75
e 21 83
e 21 88
e 21 90
e 21 95
e 21 99
e 21 101
e 21 105
e 21 114
e 21 117
e 21 118
e 21 121
e 21 122
e 21 125
e 21 126
e 21 132
e 21 134
e 21 141
e 21 142
e 21 146
e 21 151
e 21 159
e 21 182
e 21 186
e 21 188
e 21 191
e 21 193
e 22 23
e 22 24
e 22 25
e 22 26
e 22 27
e 22 28
e 22 29
e 22 30
e 22 31
e 22 32
e 22 34
e 22 35
e 22 36
e 22 38
e 22 39
e 22 40
e 22 42
e 22 43
e 22 45
e 22 46
e 22 47
e 22 48
e 22 49
e 22 50
e 22 54
e 22 57
e 22 58
e 22 61
e 22 63
e 22 65
e 22 66
e 22 70
e 22 73
e 22 77
e 22 78
e 22 81
e 22 86
e 22 87
e 22 89
e 22 98
e 22 102
e 22 103
e 22 104
e 22 114
e 22 124
e 22 131
e 22 133
e 22 143
e 22 147
e 22 153
e 22 156
e 22 159
e 22 163
e 22 164
e 22 168
e 22 178
e 22 179
e 22 181
e 22 183
e 22 187
e 22 202
e 23 25
e 23 26
e 23 27
e 23 28
e 23 29
e 23 30
e 23 31
e 23 32
e 23 33
e 23 39
e 23 42
e 23 44
e 23 48
e 23 51
e 23 54
e 23 56
e 23 60
e 23 64
e 23 67
e 23 69
e 23 70
e 23 80
e 23 84
e 23 96
e 23 106
e 23 109
e 23 110
e 23 115
e 23 121
e 23 128
e 23 136
e 23 139
e 23 147
e 23 150
e 23 156
e 23 159
e 23 168
e 23 177
e 23 188
e 23 196
e 23 197
e 24 25
e 24 26
e 24 27
e 24 28
e 24 35
e 24 36
e 24 40
e 24 43
e 24 51
e 24 52
e 24 55
e 24 57
e 24 58
e 24 59
e 24 60
e 24 66
e 24 71
e 24 75
e 24 76
e 24 77
e 24 80
e 24 88
e 24 91
e 24 92
e 24 95
e 24 100
e 24 102
e 24 103
e 24 117
e 24 127
e 24 130
e 24 135
e 24 139
e 24 140
e 24 144
e 24 151
e 24 155
e 24 157
e 24 160
e 24 165
e 24 166
e 24 167
e 24 172
e 24 177
e 24 180
e 24 185
e 24 195
e 24 197
e 24 198
e 24 199
e 25 26
e 25 27
e 25 28
e 25 29
e 25 30
e 25 33
e 25 34
e 25 35
e 25 36
e 25 39
e 25 41
e 25 42
e 25 45
e 25 46
e 25 48
e 25 49
e 25 50
e 25 55
e 25 59
e 25 68
e 25 74
e 25 79
e 25 81
e 25 82
e 25 83
e 25 92
e 25 95
e 25 96
e 25 98
e 25 104
e 25 109
e 25 111
e 25 120
e 25 123
e 25 129
e 25 132
e 25 138
e 25 139
e 25 146
e 25 149
e 25 152
e 25 153
e 25 173
e 25 181
e 25 182
e 25 185
e 25 187
e 25 194
e 25 199
e 26 27
e 26 28
e 26 31
e 26 32
e 26 34
e 26 36
e 26 38
e 26 44
e 26 45
e 26 51
e 26 52
e 26 65
e 26 72
e 26 74
e 26 79
e 26 84
e 26 85
e 26 92
e 26 106
e 26 107
e 26 108
e 26 111
e 26 112
e 26 116
e 26 124
e 26 125
e 26 138
e 26 139
e 26 142
e 26 145
e 26 148
e 26 156
e 26 162
e 26 166
e 27 29
e 27 30
e 27 31
e 27 32
e 27 35
e 27 36
e 27 37
e 27 38
e 27 39
e 27 40
e 27 43
e 27 44
e 27 46
e 27 47
e 27 48
e 27 49
e 27 50
e 27 52
e 27 53
e 27 54
e 27 59
e 27 61
e 27 62
e 27 64
e 27 66
e 27 70
e 27 72
e 27 73
e 27 74
e 27 76
e 27 79
e 27 82
e 27 84
e 27 85
e 27 86
e 27 88
e 27 91
e 27 93
e 27 96
e 27 100
e 27 106
e 27 109
e 27 111
e 27 115
e 27 121
e 27 124
e 27 129
e 27 130
e 27 131
e 27 146
e 27 147
e 27 150
e 27 151
e 27 155
e 27 158
e 27 162
e 27 173
e 27 174
e 27 175
e 27 185
e 27 187
e 27 189
e 27 191
e 27 192
e 27 193
e 27 195
e 27 201
e 28 31
e 28 32
e 28 33
e 28 34
e 28 35
e 28 37
e 28 40
e 28 41
e 28 42
e 28 44
e 28 45
e 28 46
e 28 49
e 28 51
e 28 52
e 28 59
e 28 60
e 28 64
e 28 79
e 28 80
e 28 82
e 28 84
e 28 85
e 28 86
e 28 88
e 28 94
e 28 96
e 28 100
e 28 103
e 28 112
e 28 113
e 28 114
e 28 129
e 28 130
e 28 138
e 28 140
e 28 159
e 28 165
e 28 182
e 28 184
e 28 187
e 28 191
e 28 192
e 28 194
e 29 30
e 29 31
e 29 32
e 29 33
e 29 34
e 29 37
e 29 38
e 29 39
e 29 41
e 29 44
e 29 46
e 29 47
e 29 48
e 29 50
e 29 51
e 29 52
e 29 55
e 29 61
e 29 66
e 29 71
e 29 72
e 29 75
e 29 77
e 29 78
e 29 79
e 29 86
e 29 92
e 29 94
e 29 99
e 29 103
e 29 108
e 29 109
e 29 111
e 29 113
e 29 116
e 29 117
e 29 120
e 29 141
e 29 145
e 29 152
e 29 154
e 29 155
e 29 157
e 29 159
e 29 161
e 29 169
e 29 170
e 29 177
e 29 181
e 29 185
e 29 190
e 29 200
e 30 31
e 30 36
e 30 37
e 30 38
e 30 39
e 30 40
e 30 42
e 30 43
e 30 47
e 30 50
e 30 54
e 30 56
e 30 60
e 30 70
e 30 72
e 30 76
e 30 85
e 30 101
e 30 103
e 30 107
e 30 109
e 30 110
e 30 111
e 30 112
e 30 113
e 30 115
e 30 117
e 30 120
e 30 129
e 30 130
e 30 131
e 30 138
e 30 141
e 30 146
e 30 148
e 30 150
e 30 151
e 30 156
e 30 158
e 30 168
e 30 172
e 30 175
e 30 178
e 30 195
e 30 196
e 31 32
e 31 35
e 31 43
e 31 48
e 31 52
e 31 55
e 31 58
e 31 59
e 31 65
e 31 68
e 31 80
e 31 88
e 31 91
e 31 93
e 31 97
e 31 101
e 31 111
e 31 115
e 31 120
e 31 122
e 31 127
e 31 141
e 31 142
e 31 146
e 31 150
e 31 155
e 31 157
e 31 158
e 31 175
e 31 179
e 31 182
e 31 187
e 31 189
e 31 197
e 32 34
e 32 35
e 32 37
e 32 41
e 32 42
e 32 44
e 32 45
e 32 46
e 32 48
e 32 50
e 32 51
e 32 53
e 32 54
e 32 55
e 32 56
e 32 57
e 32 63
e 32 64
e 32 65
e 32 68
e 32 69
e 32 72
e 32 73
e 32 75
e 32 76
e 32 80
e 32 84
e 32 88
e 32 90
e 32 91
e 32 92
e 32 95
e 32 102
e 32 104
e 32 105
e 32 116
e 32 119
e 32 137
e 32 138
e 32 140
e 32 143
e 32 148
e 32 154
e 32 161
e 32 173
e 32 180
e 32 181
e 32 183
e 32 192
e 32 198
e 32 200
e 32 202
e 33 34
e 33 38
e 33 39
e 33 44
e 33 45
e 33 48
e 33 54
e 33 58
e 33 62
e 33 68
e 33 74
e 33 81
e 33 83
e 33 90
e 33 91
e 33 94
e 33 103
e 33 105
e 33 106
e 33 111
e 33 113
e 33 114
e 33 120
e 33 130
e 33 134
e 33 136
e 33 137
e 33 154
e 33 162
e 33 164
e 33 168
e 33 183
e 34 47
e 34 54
e 34 58
e 34 61
e 34 65
e 34 66
e 34 67
e 34 68
e 34 71
e 34 77
e 34 80
e 34 81
e 34 93
e 34 94
e 34 98
e 34 101
e 34 108
e 34 110
e 34 112
e 34 114
e 34 121
e 34 124
e 34 127
e 34 128
e 34 134
e 34 135
e 34 137
e 34 142
e 34 143
e 34 154
e 34 158
e 34 180
e 34 183
e 34 184
e 34 185
e 34 187
e 34 195
e 34 200
e 35 38
e 35 41
e 35 42
e 35 44
e 35 47
e 35 50
e 35 51
e 35 55
e 35 57
e 35 58
e 35 63
e 35 66
e 35 68
e 35 74
e 35 77
e 35 79
e 35 86
e 35 88
e 35 89
e 35 93
e 35 96
e 35 107
e 35 124
e 35 125
e 35 129
e 35 132
e 35 133
e 35 134
e 35 139
e 35 145
e 35 157
e 35 158
e 35 161
e 35 163
e 35 168
e 35 173
e 35 177
e 35 178
e 35 179
e 35 181
e 36 37
e 36 38
e 36 43
e 36 44
e 36 45
e 36 51
e 36 52
e 36 64
e 36 65
e 36 69
e 36 74
e 36 83
e 36 86
e 36 89
e 36 92
e 36 94
e 36 96
e 36 98
e 36 102
e 36 122
e 36 136
e 36 140
e 36 143
e 36 158
e 36 168
e 36 169
e 36 176
e 36 177
e 36 191
e 36 195
e 37 38
e 37 40
e 37 41
e 37 44
e 37 50
e 37 51
e 37 64
e 37 72
e 37 73
e 37 97
e 37 120
e 37 140
e 37 141
e 37 146
e 37 154
e 37 160
e 37 182
e 37 190
e 37 196
e 37 202
e 38 47
e 38 49
e 38 57
e 38 61
e 38 62
e 38 67
e 38 76
e 38 87
e 38 93
e 38 96
e 38 104
e 38 110
e 38 112
e 38 117
e 38 119
e 38 120
e 38 128
e 38 130
e 38 131
e 38 152
e 38 160
e 38 163
e 38 168
e 38 178
e 38 179
e 38 180
e 38 199
e 38 200
e 38 201
e 39 41
e 39 50
e 39 52
e 39 53
e 39 62
e 39 63
e 39 65
e 39 67
e 39 70
e 39 72
e 39 80
e 39 81
e 39 82
e 39 97
e 39 100
e 39 105
e 39 112
e 39 115
e 39 127
e 39 140
e 39 149
e 39 157
e 39 181
e 39 192
e 39 193
e 39 195
e 39 201
e 40 42
e 40 43
e 40 46
e 40 49
e 40 52
e 40 53
e 40 57
e 40 58
e 40 59
e 40 60
e 40 61
e 40 67
e 40 70
e 40 87
e 40 97
e 40 98
e 40 102
e 40 107
e 40 126
e 40 127
e 40 135
e 40 142
e 40 151
e 40 154
e 40 156
e 40 168
e 40 176
e 40 181
e 40 196
e 40 197
e 40 198
e 41 44
e 41 46
e 41 48
e 41 53
e 41 54
e 41 55
e 41 58
e 41 60
e 41 63
e 41 70
e 41 71
e 41 73
e 41 81
e 41 84
e 41 86
e 41 102
e 41 110
e 41 113
e 41 121
e 41 123
e 41 124
e 41 127
e 41 136
e 41 152
e 41 161
e 41 170
e 41 179
e 41 191
e 41 192
e 41 198
e 42 43
e 42 44
e 42 48
e 42 51
e 42 53
e 42 54
e 42 55
e 42 56
e 42 57
e 42 61
e 42 62
e 42 66
e 42 68
e 42 69
e 42 72
e 42 76
e 42 77
e 42 79
e 42 81
e 42 84
e 42 88
e 42 90
e 42 91
e 42 93
e 42 94
e 42 98
e 42 100
e 42 102
e 42 113
e 42 126
e 42 132
e 42 147
e 42 148
e 42 154
e 42 156
e 42 164
e 42 167
e 42 177
e 42 182
e 42 183
e 43 48
e 43 49
e 43 50
e 43 55
e 43 60
e 43 62
e 43 68
e 43 71
e 43 75
e 43 78
e 43 82
e 43 89
e 43 95
e 43 96
e 43 106
e 43 111
e 43 114
e 43 115
e 43 120
e 43 121
e 43 127
e 43 128
e 43 135
e 43 138
e 43 145
e 43 150
e 43 152
e 43 155
e 43 157
e 43 170
e 43 174
e 43 176
e 43 178
e 43 183
e 43 191
e 43 192
e 43 199
e 44 69
e 44 72
e 44 75
e 44 78
e 44 82
e 44 101
e 44 108
e 44 109
e 44 132
e 44 165
e 44 166
e 44 171
e 44 174
e 44 178
e 44 185
e 44 202
e 45 53
e 45 58
e 45 66
e 45 68
e 45 70
e 45 71
e 45 74
e 45 79
e 45 82
e 45 85
e 45 99
e 45 102
e 45 121
e 45 133
e 45 135
e 45 138
e 45 154
e 45 163
e 45 168
e 45 180
e 45 190
e 46 47
e 46 49
e 46 52
e 46 56
e 46 67
e 46 68
e 46 71
e 46 77
e 46 79
e 46 93
e 46 95
e 46 96
e 46 99
e 46 103
e 46 106
e 46 143
e 46 149
e 46 162
e 46 167
e 46 192
e 47 50
e 47 56
e 47 58
e 47 62
e 47 63
e 47 66
e 47 69
e 47 81
e 47 82
e 47 86
e 47 87
e 47 88
e 47 90
e 47 97
e 47 98
e 47 100
e 47 113
e 47 117
e 47 130
e 47 131
e 47 136
e 47 141
e 47 142
e 47 152
e 47 161
e 47 163
e 47 169
e 47 175
e 47 179
e 47 185
e 47 187
e 47 188
e 47 192
e 47 195
e 47 198
e 48 53
e 48 59
e 48 60
e 48 65
e 48 67
e 48 68
e 48 69
e 48 70
e 48 72
e 48 78
e 48 82
e 48 89
e 48 91
e 48 94
e 48 99
e 48 102
e 48 104
e 48 105
e 48 110
e 48 112
e 48 115
e 48 118
e 48 132
e 48 135
e 48 136
e 48 148
e 48 169
e 48 173
e 48 174
e 48 187
e 48 190
e 48 193
e 48 196
e 48 197
e 48 198
e 48 200
e 49 51
e 49 54
e 49 55
e 49 56
e 49 57
e 49 67
e 49 79
e 49 83
e 49 96
e 49 97
e 49 99
e 49 105
e 49 107
e 49 126
e 49 134
e 49 138
e 49 144
e 49 163
e 49 171
e 49 172
e 49 186
e 49 190
e 49 194
e 49 195
e 50 56
e 50 58
e 50 59
e 50 61
e 50 64
e 50 73
e 50 78
e 50 82
e 50 94
e 50 97
e 50 99
e 50 104
e 50 107
e 50 113
e 50 122
e 50 123
e 50 125
e 50 126
e 50 128
e 50 136
e 50 137
e 50 143
e 50 157
e 50 158
e 50 173
e 50 181
e 50 196
e 50 198
e 51 53
e 51 57
e 51 70
e 51 102
e 51 112
e 51 115
e 51 129
e 51 143
e 51 146
e 51 147
e 51 164
e 51 183
e 51 185
e 51 199
e 52 57
e 52 61
e 52 62
e 52 73
e 52 74
e 52 84
e 52 88
e 52 91
e 52 92
e 52 94
e 52 105
e 52 114
e 52 127
e 52 138
e 52 145
e 52 146
e 52 166
e 52 171
e 52 184
e 52 190
e 53 54
e 53 59
e 53 60
e 53 63
e 53 66
e 53 75
e 53 77
e 53 78
e 53 83
e 53 84
e 53 89
e 53 91
e 53 94
e 53 97
e 53 114
e 53 119
e 53 124
e 53 130
e 53 132
e 53 138
e 53 172
e 53 177
e 53 185
e 54 55
e 54 59
e 54 67
e 54 80
e 54 83
e 54 86
e 54 92
e 54 105
e 54 109
e 54 121
e 54 147
e 54 153
e 54 167
e 54 172
e 54 174
e 55 56
e 55 57
e 55 61
e 55 63
e 55 66
e 55 80
e 55 95
e 55 99
e 55 100
e 55 119
e 55 128
e 55 129
e 55 136
e 55 139
e 55 141
e 55 169
e 55 180
e 55 185
e 55 191
e 55 198
e 56 60
e 56 62
e 56 63
e 56 64
e 56 66
e 56 75
e 56 76
e 56 85
e 56 86
e 56 90
e 56 91
e 56 94
e 56 101
e 56 106
e 56 108
e 56 109
e 56 117
e 56 151
e 56 165
e 56 176
e 56 194
e 56 197
e 57 60
e 57 68
e 57 73
e 57 80
e 57 88
e 57 93
e 57 116
e 57 122
e 57 125
e 57 136
e 57 145
e 57 167
e 57 171
e 57 175
e 57 184
e 57 200
e 57 201
e 58 59
e 58 65
e 58 73
e 58 75
e 58 78
e 58 81
e 58 85
e 58 90
e 58 94
e 58 95
e 58 98
e 58 100
e 58 111
e 58 113
e 58 116
e 58 122
e 58 129
e 58 138
e 58 147
e 58 150
e 58 157
e 58 168
e 58 170
e 58 180
e 58 183
e 58 192
e 58 193
e 58 197
e 59 60
e 59 63
e 59 67
e 59 68
e 59 70
e 59 71
e 59 76
e 59 77
e 59 83
e 59 85
e 59 88
e 59 90
e 59 93
e 59 103
e 59 106
e 59 114
e 59 115
e 59 117
e 59 124
e 59 131
e 59 142
e 59 145
e 59 151
e 59 154
e 59 156
e 59 162
e 59 168
e 59 178
e 59 182
e 60 64
e 60 69
e 60 70
e 60 72
e 60 73
e 60 76
e 60 78
e 60 92
e 60 96
e 60 97
e 60 98
e 60 104
e 60 107
e 60 112
e 60 122
e 60 139
e 60 141
e 60 143
e 60 154
e 60 156
e 60 160
e 60 166
e 60 174
e 60 175
e 60 185
e 60 186
e 60 192
e 61 71
e 61 74
e 61 76
e 61 84
e 61 87
e 61 90
e 61 112
e 61 115
e 61 120
e 61 129
e 61 130
e 61 135
e 61 147
e 61 157
e 61 163
e 61 179
e 61 182
e 62 64
e 62 69
e 62 73
e 62 74
e 62 90
e 62 95
e 62 178
e 62 187
e 62 189
e 63 83
e 63 89
e 63 106
e 63 120
e 63 126
e 63 138
e 63 148
e 63 155
e 63 159
e 63 179
e 63 189
e 64 78
e 64 81
e 64 92
e 64 100
e 64 108
e 64 118
e 64 120
e 64 131
e 64 146
e 64 158
e 64 167
e 64 174
e 64 175
e 64 182
e 64 201
e 65 69
e 65 73
e 65 79
e 65 85
e 65 93
e 65 99
e 65 103
e 65 106
e 65 107
e 65 109
e 65 115
e 65 134
e 65 161
e 65 169
e 65 178
e 65 196
e 66 70
e 66 80
e 66 81
e 66 86
e 66 91
e 66 95
e 66 98
e 66 108
e 66 132
e 66 147
e 66 152
e 66 159
e 66 173
e 66 193
e 66 196
e 66 199
e 67 70
e 67 81
e 67 90
e 67 91
e 67 95
e 67 99
e 67 102
e 67 111
e 67 115
e 67 119
e 67 123
e 67 124
e 67 125
e 67 182
e 67 196
e 68 76
e 68 86
e 68 96
e 68 108
e 68 111
e 68 112
e 68 118
e 68 127
e 68 129
e 68 133
e 68 143
e 68 147
e 68 151
e 68 160
e 68 162
e 68 166
e 68 167
e 68 190
e 69 74
e 69 75
e 69 76
e 69 83
e 69 90
e 69 99
e 69 100
e 69 112
e 69 117
e 69 124
e 69 157
e 69 162
e 70 77
e 70 85
e 70 97
e 70 145
e 70 166
e 70 180
e 70 185
e 70 190
e 71 76
e 71 77
e 71 79
e 71 83
e 71 84
e 71 86
e 71 87
e 71 88
e 71 89
e 71 91
e 71 93
e 71 96
e 71 98
e 71 100
e 71 104
e 71 109
e 71 110
e 71 111
e 71 116
e 71 117
e 71 118
e 71 121
e 71 127
e 71 129
e 71 134
e 71 147
e 71 165
e 71 166
e 71 169
e 71 170
e 71 179
e 71 182
e 71 186
e 71 189
e 71 190
e 71 200
e 72 78
e 72 87
e 72 89
e 72 103
e 72 113
e 72 118
e 72 128
e 72 131
e 72 140
e 72 144
e 72 155
e 72 156
e 72 169
e 72 175
e 72 180
e 72 194
e 73 85
e 73 89
e 73 90
e 73 92
e 73 101
e 73 121
e 73 133
e 73 154
e 73 157
e 73 158
e 73 165
e 73 168
e 73 177
e 73 181
e 74 75
e 74 80
e 74 82
e 74 85
e 74 87
e 74 92
e 74 130
e 74 132
e 74 145
e 74 152
e 74 153
e 74 163
e 74 170
e 74 191
e 74 193
e 74 194
e 74 199
e 75 84
e 75 85
e 75 90
e 75 95
e 75 104
e 75 107
e 75 110
e 75 119
e 75 121
e 75 126
e 75 128
e 75 139
e 75 169
e 75 171
e 75 195
e 75 199
e 76 81
e 76 83
e 76 102
e 76 103
e 76 105
e 76 110
e 76 131
e 76 140
e 76 148
e 76 154
e 76 159
e 76 181
e 77 80
e 77 85
e 77 87
e 77 93
e 77 101
e 77 108
e 77 111
e 77 119
e 77 135
e 77 137
e 77 151
e 77 160
e 77 172
e 77 174
e 77 184
e 77 193
e 77 201
e 78 84
e 78 111
e 78 124
e 78 133
e 78 148
e 78 190
e 78 197
e 79 84
e 79 93
e 79 126
e 79 127
e 79 145
e 79 146
e 79 154
e 79 180
e 79 187
e 79 192
e 79 200
e 80 82
e 80 83
e 80 100
e 80 104
e 80 105
e 80 107
e 80 108
e 80 116
e 80 122
e 80 126
e 80 127
e 80 139
e 80 140
e 80 141
e 80 160
e 80 178
e 80 188
e 81 87
e 81 96
e 81 100
e 81 103
e 81 108
e 81 115
e 81 116
e 81 127
e 81 142
e 81 144
e 81 151
e 81 157
e 81 160
e 81 165
e 81 186
e 81 189
e 82 98
e 82 106
e 82 113
e 82 117
e 82 118
e 82 126
e 82 134
e 82 139
e 82 149
e 82 156
e 83 87
e 83 99
e 83 105
e 83 109
e 83 114
e 83 142
e 83 150
e 83 152
e 83 155
e 83 188
e 83 194
e 83 196
e 84 114
e 84 116
e 84 119
e 84 139
e 84 147
e 84 176
e 84 193
e 85 103
e 85 110
e 85 113
e 85 145
e 85 158
e 85 175
e 85 184
e 85 193
e 85 199
e 86 89
e 86 94
e 86 99
e 86 105
e 86 108
e 86 116
e 86 126
e 86 144
e 86 146
e 86 147
e 86 158
e 86 182
e 86 198
e 86 200
e 86 202
e 87 88
e 87 103
e 87 107
e 87 112
e 87 113
e 87 133
e 87 143
e 87 144
e 87 149
e 87 152
e 87 162
e 87 175
e 87 202
e 88 97
e 88 118
e 88 139
e 88 148
e 88 173
e 88 185
e 88 191
e 89 90
e 89 97
e 89 110
e 89 115
e 89 118
e 89 121
e 89 132
e 89 136
e 89 137
e 89 141
e 89 149
e 89 165
e 89 186
e 89 189
e 89 199
e 90 104
e 90 136
e 90 145
e 90 153
e 90 156
e 90 172
e 90 174
e 90 176
e 90 183
e 91 98
e 91 128
e 91 139
e 91 184
e 91 200
e 92 101
e 92 105
e 92 130
e 92 132
e 92 133
e 92 139
e 92 189
e 92 199
e 93 95
e 93 97
e 93 101
e 93 108
e 93 111
e 93 119
e 93 133
e 93 150
e 93 160
e 93 165
e 93 178
e 93 180
e 94 98
e 94 104
e 94 116
e 94 118
e 94 125
e 94 133
e 94 134
e 94 137
e 94 152
e 94 153
e 94 179
e 94 181
e 94 188
e 95 108
e 95 113
e 95 122
e 95 123
e 95 189
e 96 125
e 96 164
e 96 166
e 96 176
e 96 194
e 97 106
e 97 107
e 97 110
e 97 115
e 97 118
e 97 122
e 97 126
e 97 136
e 97 150
e 97 177
e 97 178
e 97 180
e 97 198
e 97 199
e 98 112
e 98 123
e 98 131
e 98 137
e 98 148
e 98 149
e 98 188
e 98 193
e 98 201
e 99 110
e 99 153
e 99 160
e 99 171
e 99 190
e 100 109
e 100 122
e 100 133
e 100 136
e 100 156
e 100 164
e 100 169
e 100 182
e 100 188
e 100 191
e 100 193
e 101 112
e 101 131
e 101 142
e 101 147
e 101 191
e 101 194
e 101 197
e 102 109
e 102 122
e 102 131
e 102 133
e 102 134
e 102 167
e 102 171
e 102 183
e 103 112
e 103 113
e 103 117
e 103 125
e 103 126
e 103 150
e 103 160
e 103 170
e 103 176
e 103 188
e 103 189
e 103 196
e 104 108
e 104 128
e 104 143
e 104 156
e 104 167
e 105 118
e 105 129
e 105 132
e 105 136
e 105 137
e 106 109
e 106 116
e 106 131
e 106 133
e 106 157
e 106 162
e 106 171
e 107 110
e 107 119
e 107 125
e 108 124
e 108 127
e 108 135
e 108 160
e 108 171
e 108 200
e 108 202
e 109 116
e 109 118
e 109 123
e 109 142
e 109 164
e 109 188
e 109 201
e 110 122
e 110 123
e 110 125
e 110 137
e 110 138
e 110 143
e 110 158
e 110 178
e 110 193
e 111 123
e 111 143
e 111 150
e 111 162
e 111 164
e 111 165
e 111 169
e 111 187
e 111 197
e 112 124
e 112 130
e 112 135
e 112 154
e 112 156
e 112 163
e 112 169
e 112 186
e 112 188
e 113 121
e 113 123
e 113 148
e 113 158
e 113 165
e 113 169
e 113 181
e 113 182
e 113 186
e 113 201
e 114 120
e 114 123
e 114 128
e 114 132
e 114 134
e 114 141
e 114 150
e 114 151
e 114 152
e 114 153
e 114 155
e 114 168
e 114 169
e 114 172
e 115 137
e 115 141
e 115 148
e 115 152
e 115 165
e 115 176
e 115 182
e 115 184
e 115 198
e 115 200
e 116 119
e 116 145
e 116 195
e 116 201
e 117 146
e 117 152
e 117 161
e 117 179
e 117 182
e 117 202
e 118 121
e 118 128
e 118 144
e 118 145
e 118 170
e 118 177
e 118 184
e 118 186
e 119 158
e 119 196
e 120 134
e 120 167
e 120 175
e 121 122
e 121 124
e 121 142
e 121 161
e 121 170
e 121 183
e 121 192
e 121 200
e 122 133
e 122 144
e 123 128
e 123 137
e 123 140
e 123 167
e 123 172
e 123 186
e 123 188
e 123 191
e 124 140
e 124 165
e 125 133
e 125 134
e 125 137
e 125 155
e 125 184
e 126 152
e 126 162
e 126 171
e 126 185
e 127 130
e 127 141
e 127 149
e 127 173
e 127 195
e 127 200
e 128 134
e 128 138
e 128 145
e 128 149
e 128 150
e 128 164
e 128 169
e 128 170
e 128 176
e 128 197
e 129 140
e 129 151
e 129 153
e 129 155
e 129 161
e 129 164
e 129 171
e 129 174
e 129 195
e 129 202
e 130 149
e 130 172
e 130 174
e 130 195
e 130 196
e 131 132
e 131 146
e 131 150
e 131 157
e 131 164
e 131 191
e 131 194
e 132 142
e 133 134
e 133 166
e 133 190
e 133 192
e 134 135
e 134 136
e 134 153
e 134 162
e 134 190
e 135 148
e 135 150
e 135 185
e 135 195
e 135 201
e 136 144
e 136 150
e 137 181
e 137 201
e 138 144
e 138 156
e 138 164
e 138 189
e 139 144
e 139 153
e 139 163
e 139 167
e 139 174
e 139 178
e 139 183
e 141 153
e 141 177
e 142 173
e 142 177
e 142 184
e 143 159
e 143 189
e 144 153
e 144 161
e 144 165
e 145 171
e 145 197
e 145 199
e 146 155
e 146 162
e 146 189
e 146 190
e 146 198
e 147 153
e 147 159
e 147 160
e 147 171
e 147 189
e 148 155
e 148 170
e 148 187
e 149 180
e 149 181
e 150 180
e 150 184
e 150 188
e 150 197
e 151 162
e 151 175
e 151 186
e 152 160
e 153 159
e 153 193
e 154 171
e 154 193
e 154 197
e 155 159
e 155 161
e 155 200
e 157 173
e 157 196
e 158 159
e 158 166
e 158 170
e 158 177
e 159 168
e 159 174
e 160 185
e 161 179
e 161 198
e 161 202
e 162 169
e 162 176
e 162 198
e 163 172
e 163 173
e 166 171
e 167 174
e 167 179
e 167 188
e 167 194
e 169 186
e 172 175
e 172 180
e 173 179
e 173 202
e 176 184
e 176 202
e 177 198
e 178 191
e 180 183
e 180 186
e 180 195
e 181 184
e 181 186
e 182 184
e 182 187
e 184 190
e 185 192
e 186 199
e 187 194
e 189 202
e 190 194
e 197 199
